50
1377
31 76 70 17 48 78 61 81 75 9 78 2 61 34 71 30 25 92 61 70 71 61 51 82 20 30 82 20 67 50 95 2 86 100 9 21 98 76 6 39 100 4 35 61 77 93 50 92 55 51
94 74 57 18 47 13 5 18 64 28 34 87 56 100 81 39 54 65 50 74 45 69 75 53 75 30 44 88 4 36 78 86 90 21 90 42 70 74 73 14 92 84 28 82 74 35 37 16 9 62
